p cnf 73 45
11 -15 0
11 -16 0
11 -18 0
11 -19 0
5 7 -10 14 0
5 6 -9 12 0
7 8 9 13 0
6 8 10 17 0
5 6 7 8 20 0
-10 -17 0
-9 -13 0
9 -12 0
10 -14 0
-1 -2 3 0
1 -4 0
-3 4 0
2 -4 0
8 9 10 19 0
6 -9 10 18 0
7 9 -10 16 0
5 -9 -10 15 0
-8 -20 0
-7 -20 0
-6 -20 0
-5 -20 0
-8 -19 0
-6 -18 0
-8 -17 0
-6 -17 0
-7 -16 0
-5 -15 0
-7 -14 0
-5 -14 0
-8 -13 0
-7 -13 0
-6 -12 0
-5 -12 0
-10 -19 0
-9 -19 0
-10 -18 0
9 -18 0
10 -16 0
-9 -16 0
10 -15 0
9 -15 0
